# 11081
param n := 30;
param s := 1;
set E :=  (0,2) (0,16) (1,2) (1,5) (1,22) (2,26) (3,9) (3,17) (3,18) (4,17) (5,7) (5,12) (6,25) (7,27) (8,13) (8,25) (9,20) (9,21) (9,27) (10,12) (10,27) (11,16) (11,19) (11,24) (13,14) (14,16) (15,16) (15,28) (17,19) (17,29) (19,21) (23,24);
